; benchmark generated from python API
(set-info :status unknown)
(declare-fun S_4 () Real)
(declare-fun S_5 () Real)
(declare-fun B () Real)
(declare-fun C () Real)
(declare-fun S_3 () Real)
(declare-fun S_0 () Real)
(declare-fun L_0 () Real)
(declare-fun A_0 () Real)
(declare-fun L0 () Real)
(declare-fun A_2 () Real)
(declare-fun A_1 () Real)
(declare-fun A_5 () Real)
(declare-fun Q_5 () Real)
(declare-fun A_3 () Real)
(declare-fun A_4 () Real)
(declare-fun L_3 () Real)
(declare-fun S_1 () Real)
(declare-fun L_1 () Real)
(declare-fun S_2 () Real)
(declare-fun L_2 () Real)
(assert
 (let (($x35312 (>= (+ (* (- 1.0) C) (* (- 1.0) B) S_5 (* (- 1.0) S_4)) 0.0)))
 (let (($x42 (>= L0 0.0)))
 (let (($x335 (>= C 5.0)))
 (let (($x938 (>= B 5.0)))
 (let (($x33136 (<= 0.0 (+ C A_1 (* (- 1.0) A_2)))))
 (let (($x33600 (not $x33136)))
 (let (($x31581 (<= A_3 (+ (* (- 2.0) C) (* (- 1.0) Q_5) A_5))))
 (let (($x31485 (<= A_2 (+ (* (- 3.0) C) (* (- 1.0) Q_5) A_5))))
 (let ((?x598 (* (- 1.0) Q_5)))
 (let ((?x5561 (* (- 5.0) C)))
 (let ((?x712 (* (- 1.0) L_0)))
 (let ((?x31465 (+ ?x712 ?x5561 ?x598 A_5)))
 (let (($x31466 (<= S_0 ?x31465)))
 (let (($x2383 (<= Q_5 0.0)))
 (let (($x36019 (<= 0.0 (+ (* (- 3.0) C) (* (- 1.0) A_1) (* (- 1.0) B) A_4))))
 (let (($x32292 (<= A_1 (+ (* (- 4.0) C) ?x598 A_5))))
 (let (($x33583 (not $x32292)))
 (let (($x33582 (= (+ (* 4.0 C) A_1 (* (- 1.0) A_5) Q_5) 0.0)))
 (let (($x30446 (<= (+ A_5 (* (- 1.0) A_4) (* (- 1.0) C)) 0.0)))
 (let (($x30316 (not $x30446)))
 (let (($x5357 (not (= L_0 L_3))))
 (let (($x30809 (<= (+ A_5 (* (- 1.0) A_4) B) C)))
 (let (($x30404 (= (+ A_4 Q_5 (* (- 1.0) A_5)) (+ B (* (- 1.0) C)))))
 (let (($x36119 (<= (+ (* (- 4.0) C) (* (- 1.0) B) ?x712 (* (- 1.0) S_1) A_4) 0.0)))
 (let (($x31558 (>= S_1 ?x31465)))
 (let (($x2718 (not (= L_1 L_3))))
 (let (($x980 (not (<= L_1 L_0))))
 (let (($x35836 (<= 0.0 (+ (* (- 4.0) C) (* (- 1.0) B) (* (- 1.0) S_1) S_5))))
 (let (($x33625 (<= 0.0 (+ C (* (- 1.0) A_1) L_0 S_0))))
 (let (($x33703 (not $x33625)))
 (let (($x33061 (<= A_3 (+ A_2 C))))
 (let ((?x614 (* (- 1.0) A_2)))
 (let ((?x1355 (+ A_1 ?x614 C)))
 (let (($x3970 (<= ?x1355 0.0)))
 (let (($x41407 (or $x2383 $x32292 $x33061 (not (<= 0.0 (+ (* (- 1.0) C) (* (- 1.0) A_1) A_2))) $x33703)))
 (let (($x35060 (<= 0.0 (+ (* (- 4.0) C) (* (- 1.0) B) L_0 (* (- 1.0) A_0) S_5))))
 (let (($x65499 (or $x2383 $x3970 $x31581 (not (<= (+ A_3 (* (- 1.0) L_3)) (+ A_2 ?x712 C))) $x33703)))
 (let (($x36002 (or $x2383 (not (<= (+ A_3 (* (- 1.0) A_1) (* (- 2.0) C)) 0.0)) $x31581 $x33136 $x33703)))
 (let ((?x327 (* (- 1.0) C)))
 (let ((?x30743 (+ A_3 ?x614 ?x327)))
 (let (($x30704 (<= ?x30743 0.0)))
 (let (($x31159 (not $x30704)))
 (let (($x30053 (<= (+ A_3 (* (- 1.0) A_1) (* (- 2.0) C)) 0.0)))
 (let (($x6967 (not (<= (+ A_2 (* (- 1.0) A_3) C) 0.0))))
 (let (($x31857 (not $x31581)))
 (let (($x558 (<= (+ A_3 (* (- 1.0) L_2) (* (- 1.0) A_1) L_1 (* (- 2.0) C)) 0.0)))
 (let (($x31868 (>= S_0 (+ ?x712 (* (- 6.0) C) ?x598 A_5))))
 (let (($x35142 (<= 0.0 (+ (* (- 2.0) C) (* (- 1.0) B) (* (- 1.0) S_3) S_5))))
 (let (($x32005 (<= (+ (* 4.0 C) S_0 (* (- 1.0) S_5)) 0.0)))
 (let (($x38107 (or $x32005 (<= (+ A_1 ?x712 (* 3.0 C)) S_5) $x33136 (not (<= (+ A_2 ?x712 L_3 (* (- 1.0) A_3) C) 0.0)))))
 (let (($x30999 (<= (+ A_1 (* (- 1.0) L_1) (* 3.0 C)) S_5)))
 (let (($x30270 (<= 0.0 (+ ?x327 S_5 L_3 (* (- 1.0) A_3)))))
 (let (($x34296 (<= (+ A_3 (* (- 1.0) L_2) (* (- 1.0) A_1) L_0 (* (- 2.0) C)) 0.0)))
 (let (($x33126 (<= 0.0 (+ C A_1 ?x614 L_2 ?x712))))
 (let (($x65450 (or (<= 0.0 (+ ?x327 S_5 L_2 (* (- 1.0) A_3))) $x32005 $x33126 (not $x34296))))
 (let (($x35700 (<= 0.0 (+ (* (- 1.0) B) L_0 (* (- 3.0) C) (* (- 1.0) A_1) S_5))))
 (let (($x64589 (or $x30446 $x31485 $x31581 (not (<= 0.0 (+ (* 2.0 C) L_0 S_0 ?x614))) $x33625)))
 (let (($x33155 (<= 0.0 (+ (* 2.0 C) L_0 S_0 ?x614))))
 (let ((?x394 (* (- 1.0) L_1)))
 (let ((?x31338 (+ A_2 ?x394 C)))
 (let (($x31339 (>= S_4 ?x31338)))
 (let (($x2700 (>= S_4 (+ A_3 ?x394))))
 (let (($x63951 (or $x2700 $x2718 $x31339 (<= (+ (* 2.0 C) S_1 (* (- 1.0) S_4)) 0.0))))
 (let (($x64000 (or $x2700 $x2718 $x31339 (<= (+ ?x712 (* 2.0 C) A_1 (* (- 1.0) S_4)) 0.0) (<= (+ (* 3.0 C) S_0 (* (- 1.0) S_4)) 0.0))))
 (let (($x30346 (<= (+ A_2 (* (- 1.0) L_2) (* 2.0 C)) S_5)))
 (let (($x35661 (or $x30270 $x30346 (<= (+ (* 3.0 C) S_1 (* (- 1.0) S_5)) 0.0))))
 (let (($x35067 (<= 0.0 (+ (* (- 3.0) C) (* (- 1.0) B) (* (- 1.0) S_2) S_5))))
 (let (($x31369 (<= (+ A_2 (* 3.0 C) Q_5 (* (- 1.0) A_5)) B)))
 (let ((?x465 (* (- 1.0) L_2)))
 (let ((?x1058 (+ A_3 ?x465)))
 (let (($x5036 (>= S_4 ?x1058)))
 (let ((?x2512 (* (- 3.0) C)))
 (let ((?x31449 (+ ?x712 ?x2512 ?x598 A_5)))
 (let (($x31619 (>= S_3 ?x31449)))
 (let (($x30750 (= (+ (* (- 1.0) A_3) (* (- 2.0) C) ?x598 A_5) 0.0)))
 (let ((?x1334 (* (- 2.0) C)))
 (let ((?x31436 (+ ?x712 ?x1334 ?x598 A_5)))
 (let (($x31474 (>= S_4 ?x31436)))
 (let (($x1836 (<= (+ ?x712 A_2 (* (- 1.0) S_3)) 0.0)))
 (let (($x66479 (or $x980 $x1836 (<= (+ ?x712 C A_1 (* (- 1.0) S_3)) 0.0) (<= (+ (* 2.0 C) S_0 (* (- 1.0) S_3)) 0.0))))
 (let ((?x32338 (+ ?x614 ?x2512 ?x598 A_5)))
 (let (($x32393 (= ?x32338 0.0)))
 (let (($x31928 (not $x31485)))
 (let (($x2372 (= Q_5 B)))
 (let (($x1524 (not (= L_2 L_3))))
 (let ((?x576 (* (- 1.0) L_3)))
 (let ((?x618 (* (- 1.0) A_1)))
 (let ((?x652 (* (- 1.0) B)))
 (let (($x37605 (or (not (<= (+ A_1 ?x712) (+ ?x652 ?x576 A_3 ?x1334))) (= (+ ?x1334 ?x652 A_3 L_0 ?x618 ?x576) 0.0))))
 (let (($x32787 (= L_3 (+ A_3 ?x614 L_0 ?x327 ?x652))))
 (let ((?x31880 (+ ?x652 ?x576 A_3 ?x2512)))
 (let (($x32011 (<= S_0 ?x31880)))
 (let ((?x31218 (+ ?x652 ?x576 A_3 ?x327)))
 (let (($x31309 (<= (+ A_2 ?x712) ?x31218)))
 (let (($x3418 (= L_3 L_1)))
 (let (($x36991 (or $x980 $x3418 $x31309 $x32011 (not (<= 0.0 (+ C A_1 ?x614 L_1 ?x712))))))
 (let (($x5935 (= L_3 L_0)))
 (let (($x3876 (not (= L_0 L_2))))
 (let (($x66721 (or $x3876 $x5935 $x31309 (<= (+ A_1 ?x712 L_3 (* (- 1.0) A_3) (* 2.0 C)) 0.0))))
 (let (($x650 (not (= L_1 L_2))))
 (let (($x2384 (not $x2383)))
 (let (($x69 (= L_2 L_1)))
 (let (($x37381 (or $x69 $x2384 $x30809 (<= (+ A_5 ?x576) (+ A_2 ?x465 ?x652 (* 3.0 C))))))
 (let (($x2355 (not $x2372)))
 (let (($x66581 (or $x2355 (<= A_3 (+ A_2 ?x598 C)) (<= (+ A_2 (* 3.0 C) (* (- 1.0) A_5)) 0.0))))
 (let ((?x31718 (+ ?x652 ?x576 A_3 ?x1334)))
 (let ((?x1039 (+ A_1 ?x712)))
 (let (($x32906 (<= ?x1039 ?x31718)))
 (let ((?x31082 (+ ?x652 ?x465 A_2 ?x327)))
 (let (($x32117 (<= ?x1039 ?x31082)))
 (let (($x32414 (= 0.0 (+ ?x618 B (* (- 4.0) C) ?x598 A_5))))
 (let (($x31392 (<= (+ A_1 (* 4.0 C) Q_5 (* (- 1.0) A_5)) B)))
 (let (($x32331 (not $x31392)))
 (let (($x59 (= L_1 L_0)))
 (let ((?x511 (+ A_1 ?x394 ?x652 C)))
 (let (($x571 (<= (+ A_2 ?x465) ?x511)))
 (let (($x30922 (not $x571)))
 (let (($x36580 (or $x571 $x2383 (not (<= (+ A_3 ?x576) (+ A_1 ?x394 ?x652 (* 2.0 C)))) $x31581)))
 (let (($x29757 (<= A_2 (+ A_1 ?x652 C))))
 (let (($x32200 (or $x2384 (= Q_5 0.0))))
 (let (($x79 (= L_3 L_2)))
 (let (($x41341 (or $x3418 (not (<= ?x30743 B)) (not (= L_3 (+ A_3 ?x614 L_1 ?x327 ?x652))))))
 (let (($x31969 (or $x79 $x2372 (not (<= 0.0 (+ (* (- 1.0) A_4) C A_3))) (= (+ (* (- 1.0) A_3) B ?x1334 ?x598 A_5) 0.0) (not (<= (+ A_3 (* 2.0 C) Q_5 (* (- 1.0) A_5)) B)))))
 (let (($x31850 (<= (+ A_2 ?x712 L_3 (* (- 1.0) A_3) C) 0.0)))
 (let ((?x4287 (* (- 4.0) C)))
 (let ((?x31455 (+ ?x712 ?x4287 ?x598 A_5)))
 (let (($x31486 (>= S_2 ?x31455)))
 (let (($x66594 (or (<= (+ ?x712 (* (- 1.0) S_2) A_1) 0.0) (<= (+ C S_0 (* (- 1.0) S_2)) 0.0))))
 (let ((?x31273 (+ A_2 ?x465 ?x652 C)))
 (let ((?x577 (+ A_3 ?x576)))
 (let (($x31274 (<= ?x577 ?x31273)))
 (let (($x31286 (or $x69 $x2372 $x2383 (= L_3 (+ ?x614 L_2 B ?x2512 ?x598 A_5)) (not (<= (+ A_4 ?x576 ?x614 L_2 ?x1334) 0.0)) $x31274)))
 (let (($x3023 (= L_2 L_0)))
 (let (($x945 (not (= L_0 L_1))))
 (let (($x41 (>= L_0 L0)))
 (let (($x131 (>= S_1 S_0)))
 (let (($x134 (>= S_2 S_1)))
 (let (($x137 (>= S_3 S_2)))
 (let (($x140 (>= S_4 S_3)))
 (let (($x143 (>= S_5 S_4)))
 (let (($x145 (>= A_1 A_0)))
 (let (($x146 (>= A_2 A_1)))
 (let (($x147 (>= A_3 A_2)))
 (let (($x149 (>= A_5 A_4)))
 (and (<= ?x577 S_5) $x149 $x147 $x146 $x145 $x143 $x140 $x137 $x134 $x131 $x41 (>= S_0 (+ ?x652 ?x394 A_1 ?x1334)) (or $x59 $x980) (<= (+ ?x652 ?x394 A_1 ?x327) (+ A_0 ?x712)) (>= S_1 (+ ?x652 ?x394 A_1 ?x327)) (or $x59 (<= S_2 ?x511)) (or $x69 (not (<= (+ A_2 ?x618 ?x327) 0.0))) (or $x571 (>= S_3 ?x511)) (or $x59 $x79 $x571 (= L_3 (+ A_3 ?x618 L_1 ?x1334))) (or $x59 (<= S_1 (+ A_1 ?x394 ?x652))) (or $x79 (<= (+ B ?x327 L_3 (* (- 1.0) A_3) S_4) 0.0)) (or $x79 (<= (+ B S_3 L_3 (* (- 1.0) A_3)) 0.0)) (or $x79 (<= (+ B ?x1334 S_5 L_3 (* (- 1.0) A_3)) 0.0)) (<= (+ ?x652 ?x576 A_3 (* (- 1.0) S_4)) 0.0) (or $x30922 $x69) (>= S_2 (+ A_1 ?x394 ?x652)) (<= (+ ?x652 C (* (- 1.0) S_5) ?x576 A_3) 0.0) (or $x59 (<= S_0 (+ ?x652 ?x394 A_1 ?x327))) (not (<= (+ A_4 ?x576) S_5)) (or $x59 $x69 (= L_2 (+ A_2 ?x618 L_1 ?x327))) (or (not (<= L_2 L_0)) $x3023) (or $x79 $x2372 $x30446 (<= A_5 (+ A_3 (* 2.0 C)))) (>= S_3 (+ A_2 ?x465 ?x652)) (or $x69 $x1524 $x30704) (or $x79 $x31159) (or $x945 $x3023 (<= (+ A_1 ?x712 L_2 ?x614 C) 0.0)) (or $x79 (<= S_2 ?x31218)) (or $x69 $x2372 $x30446 (<= (+ A_4 ?x576 ?x614 L_2 ?x1334) 0.0)) (or $x69 (<= S_1 ?x31082)) $x31286 (<= S_3 ?x1058) (<= S_4 (+ A_3 ?x465 C)) (or $x59 (<= S_3 (+ A_1 ?x394 ?x652 (* 2.0 C)))) (<= Q_5 B) (or $x980 $x2372 $x2718 $x30446 $x31474) (or $x980 $x2372 $x2718 $x30446 (>= S_5 (+ ?x712 ?x327 ?x598 A_5))) (or (not (<= 0.0 (+ L_0 ?x576))) $x5935) (or $x980 $x2718 $x30316 $x30404 $x30809 (>= S_5 (+ ?x712 ?x327 ?x598 A_5))) $x66594 (<= S_5 (+ ?x712 ?x598 A_5)) (or $x980 $x2372 $x2718 $x30446 $x31486) (or $x980 $x2718 $x30316 $x30404 $x30809 $x31486) (or $x69 (<= S_2 (+ A_2 ?x465 ?x652))) (or $x69 $x79 (= L_3 (+ A_3 ?x614 L_2 ?x327))) (<= (+ L_0 S_1 ?x618) 0.0) (or $x79 (not $x30270)) (or $x69 (not $x30346)) (or $x2384 $x30446) (or $x2372 $x30446 $x30750 $x31857) (or $x30270 $x30346 $x30922) (or $x650 $x980 $x3418 $x31850) (or (>= S_3 (+ A_2 ?x394)) (not $x29757)) (or $x79 $x30316 $x30404 $x30809 (<= 0.0 (+ (* (- 1.0) A_4) C A_3))) $x31969 (or $x3418 (not $x29757) (= L_3 (+ A_3 ?x614 L_1 ?x327 ?x652))) $x41341 (or (>= S_5 (+ A_1 ?x394 ?x652 (* 3.0 C))) $x571 $x30270) (<= S_3 ?x31338) (or $x59 (<= (+ A_2 ?x618 ?x327) 0.0) $x650) (or (not $x558) (not (= L_3 (+ A_3 ?x618 L_1 ?x1334))) $x79) (or $x2383 (<= (+ A_3 (* 2.0 C) Q_5 (* (- 1.0) A_5)) B)) $x32200 (or $x2383 (not $x31274) $x31581) (or $x30809 (<= (+ A_4 C Q_5 (* (- 1.0) A_5)) B)) (or $x2372 $x2718 $x30446 $x30704 (not $x29757) (= 0.0 ?x32338)) (or $x2700 $x31339 (not $x29757)) (or $x59 $x2372 $x2718 $x30446 $x32331 $x32414) (or $x59 (<= S_4 (+ A_1 ?x394 ?x652 (* 3.0 C)))) (or $x571 $x5036 (>= S_4 (+ A_1 ?x394 ?x652 (* 2.0 C)))) (or (= (+ ?x327 A_2 ?x465 ?x652 ?x618 L_0) 0.0) (not $x32117)) (or $x59 $x558 $x1524) (or $x59 (<= S_5 (+ A_1 ?x394 ?x652 (* 4.0 C)))) (or $x59 (not $x30999)) (or $x2383 $x29757 (<= A_3 (+ A_1 ?x652 (* 2.0 C))) $x31392) $x36580 (<= (+ ?x1334 S_5 (* (- 1.0) S_4)) 0.0) (or $x2718 (<= ?x30743 B)) (<= S_5 (+ A_3 ?x394 (* 2.0 C))) (or $x2383 $x30704 $x30922 $x31485) (or $x2383 $x30922 $x31159 $x31581) (or $x59 $x2718 $x30316 $x30404 $x30809 $x32331 $x32414) (or $x1524 $x30316 $x30404 $x30809 $x31928 $x32393) (>= S_3 ?x31218) (>= S_2 ?x31718) (<= S_2 (+ A_2 ?x394)) (<= ?x31880 (+ A_0 ?x712)) (>= S_0 (+ ?x652 ?x576 A_3 ?x4287)) (or (<= (+ A_2 ?x618 ?x327) 0.0) (not $x32787)) (>= S_2 ?x31082) (or $x30270 (>= S_5 (+ A_2 ?x465 ?x652 (* 2.0 C)))) (or $x69 (<= S_0 (+ ?x652 ?x465 A_2 ?x1334)) $x32117) (>= S_0 (+ ?x652 ?x465 A_2 ?x2512)) (>= S_1 (+ ?x652 ?x465 A_2 ?x1334)) (or $x69 (<= S_3 ?x31273)) (or $x3876 $x5935 $x32011 $x32906 $x33136) (<= (+ ?x652 ?x465 A_2 ?x1334) (+ A_0 ?x712)) (or $x69 (<= S_4 (+ A_2 ?x465 ?x652 (* 2.0 C)))) (or $x5036 (>= S_4 ?x31273)) (or $x30446 (<= A_3 (+ A_2 ?x652 C)) $x31369) (or $x69 $x30316 $x30404 (<= (+ A_4 ?x576 ?x614 L_2 ?x1334) 0.0) $x30809) $x66581 (or $x69 (<= S_5 (+ A_2 ?x465 ?x652 (* 3.0 C)))) $x37381 (or $x650 $x980 $x3418 $x31309 (<= S_1 ?x31718)) $x66721 (<= (+ ?x327 L_0 (* (- 1.0) A_0) S_1) 0.0) (<= (+ ?x1334 S_1 (* (- 1.0) S_0)) 0.0) (or $x2383 (<= S_3 ?x31436)) (or $x980 $x2372 $x2718 $x30446 $x31868) $x36991 (<= (+ L_0 ?x327 ?x618 S_2) 0.0) (or (not $x31309) $x32787) $x37605 (or $x980 $x2372 $x2718 $x30446 $x31619) (or $x980 $x2372 $x2718 $x30446 (<= (+ ?x5561 ?x598 A_5) A_0)) (or $x1524 $x2372 $x30446 $x31928 $x32393) (or $x2372 $x2718 $x30446 $x33582 $x33583) (or $x980 $x2372 $x2718 $x30446 $x31558) (>= S_1 ?x31880) (or $x980 $x1836 (<= (+ C S_1 (* (- 1.0) S_3)) 0.0)) (or $x2383 (<= S_4 (+ ?x712 ?x327 ?x598 A_5))) $x66479 (or $x980 $x2718 $x30316 $x30404 $x30809 $x31474) (<= (+ ?x2512 (* (- 1.0) S_0) S_2) 0.0) (<= (+ ?x1334 L_0 (* (- 1.0) A_0) S_2) 0.0) (or $x30316 $x30404 $x30750 $x30809 $x31857) (or $x980 $x2718 $x30316 $x30404 $x30809 $x31619) (or $x2383 (<= S_2 ?x31449) $x31581) (<= (+ ?x1334 (* (- 1.0) S_3) S_4) 0.0) (<= (+ ?x2512 (* (- 1.0) S_3) S_5) 0.0) (or $x5036 (<= (+ C S_2 (* (- 1.0) S_4)) 0.0)) (<= (+ ?x1334 (* (- 1.0) S_1) S_2) 0.0) (or $x2383 $x31369 $x31581) (<= (+ ?x5561 (* (- 1.0) S_1) S_5) 0.0) (<= (+ ?x5561 L_0 (* (- 1.0) A_0) S_5) 0.0) (<= S_5 (+ A_2 ?x712 (* 3.0 C))) (or $x30270 (<= (+ (* 2.0 C) S_2 (* (- 1.0) S_5)) 0.0)) (not (<= (+ A_2 ?x394 (* 2.0 C) B) S_5)) (not (<= (+ A_3 ?x465 C B) S_5)) (not $x35067) (or $x980 $x2718 $x30316 $x30404 $x30809 (<= (+ ?x5561 ?x598 A_5) A_0)) (<= (+ ?x4287 (* (- 1.0) S_0) S_3) 0.0) $x35661 (or $x30270 $x30346 $x32005 (not $x33126)) (<= S_4 (+ A_2 ?x394 (* 2.0 C))) $x64000 $x63951 (<= (+ L_0 ?x4287 ?x618 S_5) 0.0) (<= (+ L_0 ?x1334 ?x618 S_3) 0.0) (<= (+ ?x2512 L_0 (* (- 1.0) A_0) S_3) 0.0) (<= (+ ?x4287 L_0 (* (- 1.0) A_0) S_4) 0.0) (<= (+ ?x1334 (* (- 1.0) S_2) S_3) 0.0) (or $x2383 (<= S_1 ?x31455) $x31485 $x31581) (or $x30446 $x31466 $x31581 $x33155 $x33600) (or $x6967 $x30446 $x31466 $x33136 $x33625) (or $x30446 $x31159 $x31466 $x31581 $x33625) $x64589 (<= (+ ?x4287 (* (- 1.0) S_2) S_5) 0.0) (<= (+ L_0 ?x2512 ?x618 S_4) 0.0) (not $x35700) $x65450 (or $x30270 $x30999 $x31159 $x32005) $x38107 (not $x35142) (<= (+ (* (- 6.0) C) (* (- 1.0) S_0) S_5) 0.0) (or $x980 $x2718 $x30316 $x30404 $x30809 $x31868) (or $x558 $x30316 $x30404 $x30809 $x31857) (or $x2383 $x31159 $x31466 $x31581 $x33625) (or $x2383 $x6967 $x31466 $x33136 $x33625) (<= (+ ?x2512 (* (- 1.0) S_2) S_4) 0.0) (or $x2383 $x6967 $x32292 $x33136 $x33703) (<= (+ ?x5561 (* (- 1.0) S_0) S_4) 0.0) (or $x2383 $x30053 $x31159 $x32292 $x33703) $x36002 $x65499 (<= (+ ?x2512 (* (- 1.0) S_1) S_3) 0.0) (<= (+ ?x4287 (* (- 1.0) S_1) S_4) 0.0) (not $x35060) (not (<= 0.0 (+ ?x5561 ?x652 (* (- 1.0) S_0) S_5))) (or $x2383 $x31581 (not $x33061) $x33600 $x33703) $x41407 (or $x2383 $x3970 $x31485 $x33061 $x33703) (not $x35836) (or $x980 $x2718 $x30316 $x30404 $x30809 $x36119) (or $x980 $x2718 $x30316 $x31558 (not $x36119)) (or $x5357 $x30316 $x30404 $x30809 (not $x36019)) (or $x5357 $x30316 $x33582 $x33583 $x36019) (or (not $x30809) $x2383) (or $x2383 $x31466 $x31485 $x31581 $x33600) $x938 $x335 $x42 (<= (+ (* (- 1.0) A_0) L_0 S_0) 0.0) (<= (+ C S_3 (* (- 1.0) S_5)) 0.0) (not $x35312)))))))))))))))))))))))))))))))))))))))))))))))))))))))))))))))))))))))))))))))))))))))))))))))))))))))))))))))))))))))))))))))))))))))))))))))))))
(check-sat)
